
Gurobi 9.5.0 (linux64) logging started Sat Nov  4 11:41:21 2023

Set parameter LogFile to value "/lustre1/scratch/348/vsc34888/JointResearch/05.Models/06.Benchmarking/E.Representative_days_based_on_Line_Benefits_OptModel/RTS24_ByStages_nc70/openStarNet_RTS24_ByStages_nc70.log"
Set parameter Method to value 2
Set parameter MIPFocus to value 1
Set parameter Presolve to value 2
Set parameter RINS to value 100
Set parameter MIPGap to value 0.01
Set parameter Threads to value 36
Set parameter TimeLimit to value 604800
Set parameter IterationLimit to value 760000000
Gurobi Optimizer version 9.5.0 build v9.5.0rc5 (linux64)
Thread count: 36 physical cores, 36 logical processors, using up to 36 threads
Optimize a model with 31153 rows, 17654 columns and 84843 nonzeros
Model fingerprint: 0xd44b95d0
Variable types: 17615 continuous, 39 integer (39 binary)
Coefficient statistics:
  Matrix range     [1e-03, 2e+03]
  Objective range  [1e+00, 1e+00]
  Bounds range     [4e-04, 3e+00]
  RHS range        [4e-04, 3e+00]
Presolve removed 15193 rows and 7470 columns
Presolve time: 0.15s
Presolved: 15960 rows, 10184 columns, 55435 nonzeros
Variable types: 10145 continuous, 39 integer (39 binary)
Found heuristic solution: objective 142.1388490
Root relaxation presolved: 15960 rows, 10184 columns, 55435 nonzeros

Root barrier log...

Ordering time: 0.01s

Barrier statistics:
 Dense cols : 39
 AA' NZ     : 1.181e+05
 Factor NZ  : 3.959e+05 (roughly 14 MB of memory)
 Factor Ops : 1.247e+07 (less than 1 second per iteration)
 Threads    : 36

                  Objective                Residual
Iter       Primal          Dual         Primal    Dual     Compl     Time
   0   6.00199475e+05 -1.69678738e+08  4.41e+00 5.53e+02  1.50e+04     0s
   1   5.92045281e+04 -4.51578561e+07  3.91e-01 7.32e-09  1.89e+03     0s
   2   1.50913466e+04 -6.24716034e+06  1.13e-02 3.00e-09  1.98e+02     0s
   3   9.96216683e+03 -2.72146255e+05  1.09e-12 1.47e-10  8.74e+00     0s
   4   2.05260576e+03 -2.94914854e+04  1.79e-12 1.12e-11  9.78e-01     0s
   5   8.49696392e+02 -9.47491023e+03  5.28e-13 3.23e-12  3.20e-01     0s
   6   3.94280537e+02 -2.64624950e+03  2.95e-13 1.82e-12  9.42e-02     0s
   7   2.38929115e+02 -9.10881625e+02  3.11e-13 1.82e-12  3.56e-02     0s
   8   1.62983586e+02 -4.18044213e+02  3.22e-13 3.64e-12  1.80e-02     0s
   9   1.35422534e+02 -1.02527628e+02  2.90e-13 3.64e-12  7.37e-03     0s
  10   1.11000421e+02  5.46527760e+00  5.83e-13 1.82e-12  3.27e-03     0s
  11   1.03572480e+02  5.98600707e+01  5.20e-13 1.82e-12  1.35e-03     1s
  12   9.52718627e+01  7.78801092e+01  2.62e-12 1.82e-12  5.39e-04     1s
  13   9.35943514e+01  8.29399182e+01  2.40e-12 3.64e-12  3.30e-04     1s
  14   9.14329212e+01  8.48043315e+01  2.06e-12 3.64e-12  2.05e-04     1s
  15   9.04276109e+01  8.54076350e+01  2.24e-12 1.82e-12  1.56e-04     1s
  16   8.87787369e+01  8.65372611e+01  3.45e-12 3.64e-12  6.95e-05     1s
  17   8.80024316e+01  8.69189272e+01  1.12e-11 1.82e-12  3.36e-05     1s
  18   8.76318933e+01  8.71707529e+01  1.87e-11 1.82e-12  1.43e-05     1s
  19   8.74130510e+01  8.71972234e+01  9.27e-11 1.82e-12  6.69e-06     1s
  20   8.73278649e+01  8.72603764e+01  3.69e-09 3.64e-12  2.09e-06     1s
  21   8.72813013e+01  8.72697835e+01  4.07e-10 3.64e-12  3.57e-07     1s
  22   8.72749963e+01  8.72741040e+01  4.10e-11 1.82e-12  2.77e-08     1s
  23   8.72744093e+01  8.72744084e+01  6.76e-11 1.82e-12  2.61e-11     1s

Barrier solved model in 23 iterations and 0.64 seconds (0.52 work units)
Optimal objective 8.72744093e+01


Root relaxation: objective 8.727441e+01, 1231 iterations, 0.43 seconds (0.24 work units)

    Nodes    |    Current Node    |     Objective Bounds      |     Work
 Expl Unexpl |  Obj  Depth IntInf | Incumbent    BestBd   Gap | It/Node Time

     0     0   87.27441    0   11  142.13885   87.27441  38.6%     -    0s
H    0     0                     116.0279174   87.27441  24.8%     -    0s
H    0     0                     100.9988302   91.61409  9.29%     -    1s
     0     0   91.61409    0   11  100.99883   91.61409  9.29%     -    1s
     0     0   91.98946    0   10  100.99883   91.98946  8.92%     -    1s
     0     0   92.18348    0    9  100.99883   92.18348  8.73%     -    1s
     0     0   92.18348    0    9  100.99883   92.18348  8.73%     -    1s
     0     0   92.18348    0    9  100.99883   92.18348  8.73%     -    2s
     0     0   92.27443    0   11  100.99883   92.27443  8.64%     -    2s
     0     0   92.32193    0    9  100.99883   92.32193  8.59%     -    2s
     0     0   92.34385    0   10  100.99883   92.34385  8.57%     -    2s
     0     0   92.34871    0   11  100.99883   92.34871  8.56%     -    2s
     0     0   92.35051    0   11  100.99883   92.35051  8.56%     -    2s
     0     0   92.35051    0   11  100.99883   92.35051  8.56%     -    2s
     0     0   92.36857    0   11  100.99883   92.36857  8.54%     -    2s
     0     0   92.37820    0   11  100.99883   92.37820  8.54%     -    2s
     0     0   92.38219    0   11  100.99883   92.38219  8.53%     -    2s
     0     0   92.42286    0   11  100.99883   92.42286  8.49%     -    3s
H    0     0                      99.1257995   92.42286  6.76%     -    7s
     0     2   92.42286    0   11   99.12580   92.42286  6.76%     -    7s
   302    10   98.64076   14    3   99.12580   97.99981  1.14%   179   12s

Cutting planes:
  Gomory: 4
  Implied bound: 39
  MIR: 394
  Relax-and-lift: 1

Explored 334 nodes (60985 simplex iterations) in 12.27 seconds (12.40 work units)
Thread count was 36 (of 36 available processors)

Solution count 4: 99.1258 100.999 116.028 142.139 

Optimal solution found (tolerance 1.00e-02)
Best objective 9.912579945048e+01, best bound 9.848892932410e+01, gap 0.6425%

Gurobi 9.5.0 (linux64) logging started Sat Nov  4 11:41:37 2023

Set parameter LogFile to value "/lustre1/scratch/348/vsc34888/JointResearch/05.Models/06.Benchmarking/E.Representative_days_based_on_Line_Benefits_OptModel/RTS24_ByStages_nc70/openStarNet_RTS24_ByStages_nc70.log"
Set parameter Method to value 2
Set parameter MIPFocus to value 1
Set parameter Presolve to value 2
Set parameter RINS to value 100
Set parameter MIPGap to value 0.01
Set parameter Threads to value 36
Set parameter TimeLimit to value 604800
Set parameter IterationLimit to value 760000000
No parameters matching 'relax_integrality' found
Gurobi Optimizer version 9.5.0 build v9.5.0rc5 (linux64)
Thread count: 36 physical cores, 36 logical processors, using up to 36 threads
Optimize a model with 31153 rows, 17615 columns and 73884 nonzeros
Model fingerprint: 0xce9328bd
Coefficient statistics:
  Matrix range     [1e-03, 2e+03]
  Objective range  [1e+00, 1e+00]
  Bounds range     [4e-04, 3e+00]
  RHS range        [4e-04, 3e+01]
Presolve removed 24645 rows and 8174 columns
Presolve time: 0.03s
Presolved: 6508 rows, 9581 columns, 23857 nonzeros

Ordering time: 0.00s

Barrier statistics:
 AA' NZ     : 1.679e+04
 Factor NZ  : 7.132e+04 (roughly 6 MB of memory)
 Factor Ops : 1.084e+06 (less than 1 second per iteration)
 Threads    : 36

                  Objective                Residual
Iter       Primal          Dual         Primal    Dual     Compl     Time
   0   6.73531741e+05 -5.15957976e+08  5.74e+00 2.92e+03  6.18e+04     0s
   1   7.38514911e+04 -8.45583339e+07  4.80e-01 4.79e-11  6.65e+03     0s
   2   3.86356390e+04 -7.99924262e+06  1.33e-01 4.45e-11  5.98e+02     0s
   3   2.08808053e+04 -6.86090376e+05  5.25e-03 2.91e-11  4.36e+01     0s
   4   7.19476793e+03 -1.18429847e+05  6.78e-07 5.80e-10  7.65e+00     0s
   5   3.35194038e+03 -3.05211407e+04  1.46e-07 1.34e-10  2.06e+00     0s
   6   1.82268004e+03 -9.37115689e+03  5.46e-08 3.97e-11  6.82e-01     0s
   7   6.03377725e+02 -2.53806173e+03  8.13e-09 1.01e-11  1.91e-01     0s
   8   3.42731376e+02 -7.84535610e+02  3.02e-09 7.28e-12  6.87e-02     0s
   9   2.13983121e+02 -2.00152227e+02  1.23e-09 1.46e-11  2.52e-02     0s
  10   1.48845064e+02  3.34802951e+01  4.97e-10 7.28e-12  7.03e-03     0s
  11   1.15188941e+02  7.11913523e+01  1.44e-10 3.64e-12  2.68e-03     0s
  12   1.05956687e+02  8.82471020e+01  5.61e-11 7.28e-12  1.08e-03     0s
  13   1.01692276e+02  9.48538642e+01  1.93e-11 7.28e-12  4.17e-04     0s
  14   1.00168591e+02  9.76931073e+01  7.48e-12 7.28e-12  1.51e-04     0s
  15   9.95291064e+01  9.87445590e+01  2.84e-12 1.46e-11  4.78e-05     0s
  16   9.92019441e+01  9.90653693e+01  7.91e-13 1.46e-11  8.32e-06     0s
  17   9.91304134e+01  9.91250131e+01  3.38e-12 7.28e-12  3.29e-07     0s
  18   9.91258043e+01  9.91257975e+01  6.35e-12 3.64e-12  4.13e-10     0s
  19   9.91257995e+01  9.91257995e+01  6.59e-12 1.82e-12  4.67e-16     0s

Barrier solved model in 19 iterations and 0.16 seconds (0.09 work units)
Optimal objective 9.91257995e+01

Crossover log...

     733 DPushes remaining with DInf 0.0000000e+00                 0s
       0 DPushes remaining with DInf 0.0000000e+00                 0s

     524 PPushes remaining with PInf 0.0000000e+00                 0s
       0 PPushes remaining with PInf 0.0000000e+00                 0s

  Push phase complete: Pinf 0.0000000e+00, Dinf 1.4133156e-12      0s

Iteration    Objective       Primal Inf.    Dual Inf.      Time
     531    9.9125799e+01   0.000000e+00   0.000000e+00      0s

Use crossover to convert LP symmetric solution to basic solution...
Crossover log...

       0 DPushes remaining with DInf 0.0000000e+00                 0s

     252 PPushes remaining with PInf 0.0000000e+00                 0s
       0 PPushes remaining with PInf 0.0000000e+00                 0s

  Push phase complete: Pinf 0.0000000e+00, Dinf 2.1349226e-12      0s

Iteration    Objective       Primal Inf.    Dual Inf.      Time
     789    9.9125799e+01   0.000000e+00   0.000000e+00      0s

Solved in 789 iterations and 0.23 seconds (0.13 work units)
Optimal objective  9.912579945e+01

Gurobi 9.5.0 (linux64) logging started Sat Nov  4 12:10:15 2023

Set parameter LogFile to value "/lustre1/scratch/348/vsc34888/JointResearch/05.Models/06.Benchmarking/E.Representative_days_based_on_Line_Benefits_OptModel/RTS24_ByStages_nc70/openStarNet_RTS24_ByStages_nc70.log"
Set parameter Method to value 2
Set parameter MIPFocus to value 1
Set parameter Presolve to value 2
Set parameter RINS to value 100
Set parameter MIPGap to value 0.01
Set parameter Threads to value 36
Set parameter TimeLimit to value 604800
Set parameter IterationLimit to value 760000000
Gurobi Optimizer version 9.5.0 build v9.5.0rc5 (linux64)
Thread count: 36 physical cores, 36 logical processors, using up to 36 threads
Optimize a model with 31153 rows, 17654 columns and 84843 nonzeros
Model fingerprint: 0xfb4d337a
Variable types: 17615 continuous, 39 integer (39 binary)
Coefficient statistics:
  Matrix range     [1e-03, 2e+03]
  Objective range  [1e+00, 1e+00]
  Bounds range     [4e-04, 3e+00]
  RHS range        [4e-04, 3e+00]
Presolve removed 15193 rows and 7470 columns
Presolve time: 0.15s
Presolved: 15960 rows, 10184 columns, 55435 nonzeros
Variable types: 10145 continuous, 39 integer (39 binary)
Found heuristic solution: objective 142.1388490
Root relaxation presolved: 15960 rows, 10184 columns, 55435 nonzeros

Root barrier log...

Ordering time: 0.01s

Barrier statistics:
 Dense cols : 39
 AA' NZ     : 1.181e+05
 Factor NZ  : 3.959e+05 (roughly 14 MB of memory)
 Factor Ops : 1.247e+07 (less than 1 second per iteration)
 Threads    : 36

                  Objective                Residual
Iter       Primal          Dual         Primal    Dual     Compl     Time
   0   6.00199475e+05 -1.69678738e+08  4.41e+00 5.53e+02  1.50e+04     0s
   1   5.92045281e+04 -4.51578561e+07  3.91e-01 1.05e-08  1.89e+03     0s
   2   1.50913466e+04 -6.24716034e+06  1.13e-02 3.09e-09  1.98e+02     0s
   3   9.96216683e+03 -2.72146255e+05  9.46e-13 1.82e-10  8.74e+00     0s
   4   2.05260576e+03 -2.94914854e+04  1.29e-12 1.13e-11  9.78e-01     0s
   5   8.49696392e+02 -9.47491023e+03  5.76e-13 3.21e-12  3.20e-01     0s
   6   3.94280537e+02 -2.64624950e+03  3.61e-13 1.82e-12  9.42e-02     0s
   7   2.38929115e+02 -9.10881625e+02  4.51e-13 1.82e-12  3.56e-02     0s
   8   1.62983586e+02 -4.18044213e+02  2.69e-13 1.82e-12  1.80e-02     0s
   9   1.35422534e+02 -1.02527628e+02  2.33e-13 1.82e-12  7.37e-03     0s
  10   1.11000421e+02  5.46527760e+00  2.85e-13 1.82e-12  3.27e-03     0s
  11   1.03572480e+02  5.98600707e+01  5.20e-13 1.82e-12  1.35e-03     1s
  12   9.52718627e+01  7.78801092e+01  3.57e-12 3.64e-12  5.39e-04     1s
  13   9.35943514e+01  8.29399182e+01  2.59e-12 1.82e-12  3.30e-04     1s
  14   9.14329212e+01  8.48043315e+01  2.18e-12 3.64e-12  2.05e-04     1s
  15   9.04276109e+01  8.54076350e+01  1.91e-12 1.82e-12  1.56e-04     1s
  16   8.87787369e+01  8.65372611e+01  3.74e-12 1.82e-12  6.95e-05     1s
  17   8.80024316e+01  8.69189272e+01  2.68e-11 3.64e-12  3.36e-05     1s
  18   8.76318933e+01  8.71707529e+01  2.45e-11 3.64e-12  1.43e-05     1s
  19   8.74130510e+01  8.71972234e+01  9.42e-11 1.82e-12  6.69e-06     1s
  20   8.73278648e+01  8.72603764e+01  1.20e-09 3.64e-12  2.09e-06     1s
  21   8.72918619e+01  8.72682512e+01  3.77e-10 1.82e-12  7.32e-07     1s
  22   8.72772045e+01  8.72740595e+01  6.06e-11 3.64e-12  9.75e-08     1s
  23   8.72744117e+01  8.72744065e+01  4.77e-11 1.82e-12  1.62e-10     1s
  24   8.72744088e+01  8.72744088e+01  9.84e-11 3.64e-12  1.62e-13     1s

Barrier solved model in 24 iterations and 0.65 seconds (0.53 work units)
Optimal objective 8.72744088e+01


Root relaxation: objective 8.727441e+01, 1230 iterations, 0.44 seconds (0.25 work units)

    Nodes    |    Current Node    |     Objective Bounds      |     Work
 Expl Unexpl |  Obj  Depth IntInf | Incumbent    BestBd   Gap | It/Node Time

     0     0   87.27441    0   11  142.13885   87.27441  38.6%     -    0s
H    0     0                     116.0279174   87.27441  24.8%     -    1s
H    0     0                     100.9988302   91.67951  9.23%     -    1s
     0     0   91.67951    0   10  100.99883   91.67951  9.23%     -    1s
     0     0   91.97720    0   10  100.99883   91.97720  8.93%     -    1s
     0     0   91.97720    0   10  100.99883   91.97720  8.93%     -    1s
     0     0   92.30664    0    8  100.99883   92.30664  8.61%     -    2s
     0     0   92.39986    0   10  100.99883   92.39986  8.51%     -    2s
     0     0   92.41471    0    9  100.99883   92.41471  8.50%     -    2s
     0     0   92.42521    0   10  100.99883   92.42521  8.49%     -    2s
     0     0   92.42999    0   10  100.99883   92.42999  8.48%     -    2s
     0     0   92.43001    0   10  100.99883   92.43001  8.48%     -    2s
     0     0   92.43382    0   10  100.99883   92.43382  8.48%     -    2s
     0     0   92.44292    0    9  100.99883   92.44292  8.47%     -    2s
     0     0   92.44329    0    9  100.99883   92.44329  8.47%     -    2s
     0     0   92.45599    0    9  100.99883   92.45599  8.46%     -    3s
H    0     0                      99.1257995   92.45599  6.73%     -    4s
     0     2   92.45599    0    9   99.12580   92.45599  6.73%     -    5s
   110    43     cutoff    8        99.12580   94.91047  4.25%   278   10s
   209    45   97.38260   11    4   99.12580   96.59237  2.56%   226   15s

Cutting planes:
  Gomory: 4
  Implied bound: 20
  MIR: 630
  Relax-and-lift: 2

Explored 384 nodes (72155 simplex iterations) in 19.37 seconds (19.04 work units)
Thread count was 36 (of 36 available processors)

Solution count 4: 99.1258 100.999 116.028 142.139 

Optimal solution found (tolerance 1.00e-02)
Best objective 9.912579945048e+01, best bound 9.856179760532e+01, gap 0.5690%

Gurobi 9.5.0 (linux64) logging started Sat Nov  4 12:10:38 2023

Set parameter LogFile to value "/lustre1/scratch/348/vsc34888/JointResearch/05.Models/06.Benchmarking/E.Representative_days_based_on_Line_Benefits_OptModel/RTS24_ByStages_nc70/openStarNet_RTS24_ByStages_nc70.log"
Set parameter Method to value 2
Set parameter MIPFocus to value 1
Set parameter Presolve to value 2
Set parameter RINS to value 100
Set parameter MIPGap to value 0.01
Set parameter Threads to value 36
Set parameter TimeLimit to value 604800
Set parameter IterationLimit to value 760000000
No parameters matching 'relax_integrality' found
Gurobi Optimizer version 9.5.0 build v9.5.0rc5 (linux64)
Thread count: 36 physical cores, 36 logical processors, using up to 36 threads
Optimize a model with 31153 rows, 17615 columns and 73884 nonzeros
Model fingerprint: 0x137853ce
Coefficient statistics:
  Matrix range     [1e-03, 2e+03]
  Objective range  [1e+00, 1e+00]
  Bounds range     [4e-04, 3e+00]
  RHS range        [4e-04, 3e+01]
Presolve removed 24645 rows and 8174 columns
Presolve time: 0.03s
Presolved: 6508 rows, 9581 columns, 23857 nonzeros

Ordering time: 0.00s

Barrier statistics:
 AA' NZ     : 1.688e+04
 Factor NZ  : 7.165e+04 (roughly 6 MB of memory)
 Factor Ops : 1.092e+06 (less than 1 second per iteration)
 Threads    : 36

                  Objective                Residual
Iter       Primal          Dual         Primal    Dual     Compl     Time
   0   6.79799660e+05 -5.16032596e+08  5.82e+00 1.40e+03  6.22e+04     0s
   1   7.33888494e+04 -8.60331904e+07  4.83e-01 4.37e-11  6.75e+03     0s
   2   3.83220584e+04 -7.19464549e+06  1.33e-01 4.95e-11  5.39e+02     0s
   3   2.02850345e+04 -6.83810942e+05  4.99e-03 2.70e-11  4.34e+01     0s
   4   7.52468672e+03 -1.13909271e+05  5.32e-07 1.07e-10  7.39e+00     0s
   5   3.63937454e+03 -2.96369482e+04  1.32e-07 2.88e-11  2.02e+00     0s
   6   1.98625818e+03 -9.45242103e+03  5.14e-08 1.46e-11  6.96e-01     0s
   7   6.30426340e+02 -2.46321081e+03  7.53e-09 1.46e-11  1.88e-01     0s
   8   3.73282040e+02 -7.61730108e+02  3.12e-09 7.28e-12  6.91e-02     0s
   9   2.25835342e+02 -2.17505226e+02  1.25e-09 1.46e-11  2.70e-02     0s
  10   1.37032532e+02 -1.00489602e+01  2.92e-10 1.46e-11  8.95e-03     0s
  11   1.15460455e+02  5.10674393e+01  1.12e-10 7.28e-12  3.92e-03     0s
  12   1.07699182e+02  8.14148852e+01  5.35e-11 1.82e-12  1.60e-03     0s
  13   1.02946992e+02  9.18264111e+01  2.18e-11 7.28e-12  6.77e-04     0s
  14   1.01026068e+02  9.62491470e+01  1.01e-11 7.28e-12  2.91e-04     0s
  15   9.97842125e+01  9.82341823e+01  3.34e-12 1.46e-11  9.43e-05     0s
  16   9.93277822e+01  9.89001176e+01  9.66e-13 3.64e-12  2.60e-05     0s
  17   9.91595930e+01  9.91175474e+01  3.71e-13 1.46e-11  2.56e-06     0s
  18   9.91261998e+01  9.91254908e+01  4.20e-12 3.64e-12  4.31e-08     0s
  19   9.91257995e+01  9.91257994e+01  9.31e-13 1.82e-12  6.26e-12     0s
  20   9.91257995e+01  9.91257995e+01  4.83e-11 7.28e-12  6.41e-17     0s

Barrier solved model in 20 iterations and 0.14 seconds (0.10 work units)
Optimal objective 9.91257995e+01

Crossover log...

     739 DPushes remaining with DInf 0.0000000e+00                 0s
       0 DPushes remaining with DInf 0.0000000e+00                 0s

     531 PPushes remaining with PInf 0.0000000e+00                 0s
       0 PPushes remaining with PInf 0.0000000e+00                 0s

  Push phase complete: Pinf 0.0000000e+00, Dinf 1.7013231e-12      0s

Iteration    Objective       Primal Inf.    Dual Inf.      Time
     537    9.9125799e+01   0.000000e+00   0.000000e+00      0s

Use crossover to convert LP symmetric solution to basic solution...
Crossover log...

       0 DPushes remaining with DInf 0.0000000e+00                 0s

     297 PPushes remaining with PInf 0.0000000e+00                 0s
       0 PPushes remaining with PInf 0.0000000e+00                 0s

  Push phase complete: Pinf 0.0000000e+00, Dinf 2.5534022e-12      0s

Iteration    Objective       Primal Inf.    Dual Inf.      Time
     840    9.9125799e+01   0.000000e+00   0.000000e+00      0s

Solved in 840 iterations and 0.21 seconds (0.13 work units)
Optimal objective  9.912579945e+01

Gurobi 11.0.0 (linux64) logging started Wed Apr 10 22:07:52 2024

Set parameter LogFile to value "/lustre1/scratch/348/vsc34888/JointResearch/05.Models/06.Benchmarking/E.Representative_days_based_on_Line_Benefits_OptModel/RTS24_ByStages_nc70/openStarNet_RTS24_ByStages_nc70.log"
Set parameter Method to value 2
Set parameter MIPFocus to value 1
Set parameter Presolve to value 2
Set parameter RINS to value 100
Set parameter MIPGap to value 0.01
Set parameter Threads to value 36
Set parameter TimeLimit to value 259200
Set parameter IterationLimit to value 760000000
Gurobi Optimizer version 11.0.0 build v11.0.0rc2 (linux64 - "Rocky Linux 8.8 (Green Obsidian)")

CPU model: Intel(R) Xeon(R) Gold 6240 CPU @ 2.60GHz, instruction set [SSE2|AVX|AVX2|AVX512]
Thread count: 36 physical cores, 36 logical processors, using up to 36 threads

Optimize a model with 27233 rows, 16389 columns and 72946 nonzeros
Model fingerprint: 0xb31503ab
Variable types: 16359 continuous, 30 integer (30 binary)
Coefficient statistics:
  Matrix range     [1e-03, 1e+03]
  Objective range  [1e+00, 1e+00]
  Bounds range     [4e-04, 3e+00]
  RHS range        [4e-04, 3e+00]
Presolve removed 14563 rows and 7677 columns
Presolve time: 0.15s
Presolved: 12670 rows, 8712 columns, 44641 nonzeros
Variable types: 8682 continuous, 30 integer (30 binary)
Found heuristic solution: objective 314.6550020
Root relaxation presolved: 12670 rows, 8712 columns, 44641 nonzeros

Root barrier log...

Ordering time: 0.01s

Barrier statistics:
 Dense cols : 30
 AA' NZ     : 9.350e+04
 Factor NZ  : 2.451e+05 (roughly 10 MB of memory)
 Factor Ops : 5.223e+06 (less than 1 second per iteration)
 Threads    : 36

                  Objective                Residual
Iter       Primal          Dual         Primal    Dual     Compl     Time
   0   8.08918472e+05 -2.17210826e+08  6.33e+00 3.03e+02  2.40e+04     0s
   1   1.38937145e+05 -6.30958539e+07  8.84e-01 5.15e-09  3.57e+03     0s
   2   4.75070755e+04 -9.66547488e+06  1.39e-01 1.07e-08  4.27e+02     0s
   3   2.82895454e+04 -6.55248914e+05  1.34e-03 1.17e-09  2.56e+01     0s
   4   1.06603608e+04 -8.71181528e+04  5.76e-05 1.17e-10  3.66e+00     0s
   5   3.43841740e+03 -2.14787531e+04  1.48e-05 2.53e-11  9.32e-01     0s
   6   1.41093332e+03 -8.26764823e+03  4.03e-06 9.63e-12  3.62e-01     0s
   7   6.72861502e+02 -1.93298310e+03  8.23e-07 3.64e-12  9.75e-02     0s
   8   4.66778106e+02 -4.18444701e+02  4.20e-07 9.09e-13  3.31e-02     0s
   9   3.40553249e+02 -4.24936426e+01  2.10e-07 1.82e-12  1.43e-02     0s
  10   2.70942643e+02  9.98129826e+01  1.08e-07 3.64e-12  6.40e-03     0s
  11   2.26061691e+02  1.63451379e+02  4.37e-08 1.82e-12  2.34e-03     0s
  12   2.05954706e+02  1.82061641e+02  1.78e-08 3.64e-12  8.94e-04     0s
  13   1.99498475e+02  1.87619759e+02  9.42e-09 9.09e-13  4.44e-04     0s
  14   1.97231567e+02  1.89095735e+02  6.27e-09 3.64e-12  3.04e-04     0s
  15   1.94967274e+02  1.90866659e+02  3.15e-09 7.28e-12  1.53e-04     0s
  16   1.94017610e+02  1.91895781e+02  1.76e-09 1.82e-12  7.94e-05     0s
  17   1.93559813e+02  1.92054430e+02  1.16e-09 1.82e-12  5.63e-05     0s
  18   1.93099611e+02  1.92536877e+02  5.10e-10 1.82e-12  2.10e-05     0s
  19   1.92894202e+02  1.92656954e+02  2.30e-10 1.82e-12  8.87e-06     0s
  20   1.92813645e+02  1.92702687e+02  1.19e-10 1.82e-12  4.15e-06     0s
  21   1.92756544e+02  1.92721840e+02  1.07e-10 3.64e-12  1.30e-06     0s
  22   1.92732950e+02  1.92727075e+02  7.93e-11 7.28e-12  2.20e-07     0s
  23   1.92729853e+02  1.92728758e+02  2.18e-10 3.64e-12  4.10e-08     0s
  24   1.92729214e+02  1.92729016e+02  5.25e-11 3.64e-12  7.41e-09     0s
  25   1.92729055e+02  1.92729039e+02  2.29e-10 1.82e-12  5.88e-10     1s
  26   1.92729042e+02  1.92729042e+02  7.30e-10 3.64e-12  1.89e-12     1s

Barrier solved model in 26 iterations and 0.51 seconds (0.48 work units)
Optimal objective 1.92729042e+02


Root relaxation: objective 1.927290e+02, 1767 iterations, 0.34 seconds (0.21 work units)

    Nodes    |    Current Node    |     Objective Bounds      |     Work
 Expl Unexpl |  Obj  Depth IntInf | Incumbent    BestBd   Gap | It/Node Time

     0     0  192.72904    0   21  314.65500  192.72904  38.7%     -    0s
H    0     0                     259.2802259  195.92773  24.4%     -    1s
     0     0  195.92773    0   17  259.28023  195.92773  24.4%     -    1s
     0     0  196.09307    0   18  259.28023  196.09307  24.4%     -    1s
     0     0  196.10779    0   17  259.28023  196.10779  24.4%     -    1s
     0     0  196.12362    0   16  259.28023  196.12362  24.4%     -    1s
     0     0  196.12735    0   16  259.28023  196.12735  24.4%     -    1s
     0     0  196.12735    0   16  259.28023  196.12735  24.4%     -    1s
     0     0  196.67501    0   21  259.28023  196.67501  24.1%     -    2s
     0     0  196.79472    0   21  259.28023  196.79472  24.1%     -    2s
     0     0  196.80539    0   21  259.28023  196.80539  24.1%     -    2s
     0     0  196.80541    0   21  259.28023  196.80541  24.1%     -    2s
     0     0  197.01258    0   21  259.28023  197.01258  24.0%     -    3s
     0     0  197.03553    0   19  259.28023  197.03553  24.0%     -    3s
     0     0  197.03619    0   19  259.28023  197.03619  24.0%     -    3s
     0     0  197.03624    0   19  259.28023  197.03624  24.0%     -    3s
     0     0  197.08625    0   20  259.28023  197.08625  24.0%     -    3s
     0     0  197.72630    0   19  259.28023  197.72630  23.7%     -    3s
H    0     0                     247.6085285  197.72630  20.1%     -    3s
     0     0  197.73597    0   19  247.60853  197.73597  20.1%     -    3s
     0     0  197.73597    0   19  247.60853  197.73597  20.1%     -    3s
     0     0  197.75131    0   19  247.60853  197.75131  20.1%     -    3s
     0     0  197.75131    0   19  247.60853  197.75131  20.1%     -    3s
     0     0  199.05360    0   19  247.60853  199.05360  19.6%     -    5s
H    0     0                     224.4922406  199.05360  11.3%     -   32s
     0     2  199.05360    0   19  224.49224  199.05360  11.3%     -   32s
    63    94  205.11848    6   17  224.49224  202.44129  9.82%   666   35s
    99   130  206.48860    7   16  224.49224  202.86658  9.63%   596   58s
H  107   130                     224.3513571  202.89299  9.56%   574   58s
   380   342  224.20826   11   12  224.35136  202.89299  9.56%   416   60s
  1312   481  223.79363   14    9  224.35136  204.89425  8.67%   326   75s
  2499   638     cutoff   12       224.35136  205.74823  8.29%   296  105s
  3891   919  222.45086   15    8  224.35136  208.81164  6.93%   271  129s
  4185   974  222.71584   16    7  224.35136  211.24537  5.84%   267  130s
  4994  1002  223.50776   12    9  224.35136  213.91489  4.65%   254  155s
  5796  1081     cutoff   13       224.35136  216.26311  3.61%   246  178s
  7444  1303     cutoff   16       224.35136  218.07829  2.80%   230  180s
 12478  1130     cutoff   20       224.35136  220.76662  1.60%   197  206s

Cutting planes:
  Learned: 3
  Gomory: 4
  Implied bound: 193
  MIR: 490
  Relax-and-lift: 11

Explored 16246 nodes (2900139 simplex iterations) in 208.90 seconds (258.23 work units)
Thread count was 36 (of 36 available processors)

Solution count 5: 224.351 224.492 247.609 ... 314.655

Optimal solution found (tolerance 1.00e-02)
Best objective 2.243513571030e+02, best bound 2.224850614960e+02, gap 0.8319%

Gurobi 11.0.0 (linux64) logging started Wed Apr 10 22:11:24 2024

Set parameter LogFile to value "/lustre1/scratch/348/vsc34888/JointResearch/05.Models/06.Benchmarking/E.Representative_days_based_on_Line_Benefits_OptModel/RTS24_ByStages_nc70/openStarNet_RTS24_ByStages_nc70.log"
Set parameter Method to value 2
Set parameter MIPFocus to value 1
Set parameter Presolve to value 2
Set parameter RINS to value 100
Set parameter MIPGap to value 0.01
Set parameter Threads to value 36
Set parameter TimeLimit to value 259200
Set parameter IterationLimit to value 760000000
Gurobi Optimizer version 11.0.0 build v11.0.0rc2 (linux64 - "Rocky Linux 8.8 (Green Obsidian)")

CPU model: Intel(R) Xeon(R) Gold 6240 CPU @ 2.60GHz, instruction set [SSE2|AVX|AVX2|AVX512]
Thread count: 36 physical cores, 36 logical processors, using up to 36 threads

Optimize a model with 27233 rows, 16359 columns and 64516 nonzeros
Model fingerprint: 0x2b43dda8
Coefficient statistics:
  Matrix range     [1e-03, 1e+03]
  Objective range  [1e+00, 1e+00]
  Bounds range     [4e-04, 3e+00]
  RHS range        [4e-04, 4e+01]
Presolve removed 23082 rows and 9406 columns
Presolve time: 0.03s
Presolved: 4151 rows, 7093 columns, 19014 nonzeros

Ordering time: 0.00s

Barrier statistics:
 AA' NZ     : 1.004e+04
 Factor NZ  : 3.267e+04 (roughly 3 MB of memory)
 Factor Ops : 4.446e+05 (less than 1 second per iteration)
 Threads    : 1

                  Objective                Residual
Iter       Primal          Dual         Primal    Dual     Compl     Time
   0   1.74109333e+06 -5.58170934e+07  6.81e+00 3.58e+03  3.73e+04     0s
   1   1.23469662e+05 -3.59188352e+07  4.17e-01 3.86e-11  4.76e+03     0s
   2   5.62915022e+04 -9.79397586e+06  1.23e-01 7.09e-11  1.08e+03     0s
   3   3.26794369e+04 -1.33886907e+06  6.12e-03 5.82e-11  1.26e+02     0s
   4   2.22064497e+04 -1.74944601e+05  6.46e-07 2.91e-11  1.77e+01     0s
   5   1.01096773e+04 -5.25068965e+04  1.15e-07 7.28e-12  5.63e+00     0s
   6   3.51290461e+03 -1.78801935e+04  2.64e-08 5.46e-12  1.92e+00     0s
   7   9.66143920e+02 -4.00731211e+03  2.51e-09 7.28e-12  4.47e-01     0s
   8   5.13479153e+02 -5.90608035e+02  3.11e-10 7.28e-12  9.93e-02     0s
   9   3.55435743e+02 -6.20729187e+01  1.13e-10 1.46e-11  3.76e-02     0s
  10   2.87400669e+02  7.09167646e+01  4.84e-11 3.64e-12  1.95e-02     0s
  11   2.56488304e+02  1.57586232e+02  2.26e-11 3.64e-12  8.90e-03     0s
  12   2.39012784e+02  1.98660353e+02  9.75e-12 1.82e-12  3.63e-03     0s
  13   2.29199563e+02  2.18802648e+02  2.91e-12 7.28e-12  9.35e-04     0s
  14   2.24911292e+02  2.22875905e+02  1.23e-12 7.28e-12  1.83e-04     0s
  15   2.24512172e+02  2.23938928e+02  1.63e-12 7.28e-12  5.16e-05     0s
  16   2.24420227e+02  2.24222290e+02  2.08e-12 1.09e-11  1.78e-05     0s
  17   2.24365660e+02  2.24313306e+02  2.42e-12 7.28e-12  4.71e-06     0s
  18   2.24352021e+02  2.24347926e+02  1.01e-12 7.28e-12  3.68e-07     0s
  19   2.24351395e+02  2.24351137e+02  2.85e-12 7.28e-12  2.33e-08     0s
  20   2.24351358e+02  2.24351353e+02  2.33e-12 1.46e-11  4.20e-10     0s
  21   2.24351357e+02  2.24351357e+02  1.33e-12 7.28e-12  4.20e-13     0s

Barrier solved model in 21 iterations and 0.09 seconds (0.08 work units)
Optimal objective 2.24351357e+02

Crossover log...

     764 DPushes remaining with DInf 0.0000000e+00                 0s
       0 DPushes remaining with DInf 0.0000000e+00                 0s

     247 PPushes remaining with PInf 0.0000000e+00                 0s
       0 PPushes remaining with PInf 0.0000000e+00                 0s

  Push phase complete: Pinf 0.0000000e+00, Dinf 1.1441751e-12      0s

Iteration    Objective       Primal Inf.    Dual Inf.      Time
     268    2.2435136e+02   0.000000e+00   0.000000e+00      0s

Use crossover to convert LP symmetric solution to basic solution...
Crossover log...

       0 DPushes remaining with DInf 0.0000000e+00                 0s

     168 PPushes remaining with PInf 0.0000000e+00                 0s
       0 PPushes remaining with PInf 0.0000000e+00                 0s

  Push phase complete: Pinf 0.0000000e+00, Dinf 1.5313364e-12      0s

Iteration    Objective       Primal Inf.    Dual Inf.      Time
     474    2.2435136e+02   0.000000e+00   0.000000e+00      0s

Solved in 474 iterations and 0.12 seconds (0.10 work units)
Optimal objective  2.243513571e+02
